NAME : XML100_2352_11
DIMENSION : 101
NB_CLUSTERS : 4
CLUSTERING_ALG : KMedoids
CLUSTERING_PARAMS : k(3)
CLUSTERS
1 0
2 3 6 17 23 28 36 38 41 42 45 49 55 56 58 61 77 79 84 85 88 92
3 1 4 5 7 9 10 14 18 19 20 24 27 31 34 35 37 40 46 47 50 51 52 60 62 65 67 69 70 75 76 78 80 83 87 89 90 94 97 99
4 2 8 11 12 13 15 16 21 22 25 26 29 30 32 33 39 43 44 48 53 54 57 59 63 64 66 68 71 72 73 74 81 82 86 91 93 95 96 98 100
EOF